c	Created in graph generator tool by Shahar Bardugo & Dorin Matzrafi
c
p	sp 5 20
c	graph contains 5 nodes and 20 arcs
c
a	1	2	95
a	2	1	20
a	1	3	62
a	1	4	93
a	1	5	148
a	2	3	86
a	2	4	107
a	2	5	63
a	3	1	62
a	3	2	62
a	3	4	133
a	3	5	151
a	4	2	68
a	4	3	14
a	4	5	156
a	5	4	92
a	4	1	150
a	5	1	181
a	5	2	0
a	5	3	184
